c Problem Statistics
c Number of variables: 200
c Number of clauses: 500
c Parse time (sec.) : 0.00
c
p cnf 200 110
-172 0
-148 0
182 0
21 0
74 0
16 0
93 0
107 0
14 0
98 0
24 0
11 0
102 0
106 0
114 0
119 0
121 0
123 0
124 0
126 0
127 0
128 0
136 0
137 0
142 0
146 0
147 0
152 0
154 0
157 0
167 0
169 0
173 0
176 0
179 0
181 0
183 0
185 0
188 0
192 0
199 0
101 0
103 0
104 0
105 0
108 0
109 0
110 0
111 0
112 0
113 0
115 0
116 0
117 0
118 0
120 0
122 0
125 0
129 0
130 0
131 0
132 0
133 0
134 0
135 0
138 0
139 0
140 0
141 0
143 0
144 0
145 0
149 0
150 0
151 0
153 0
155 0
156 0
158 0
159 0
160 0
161 0
162 0
163 0
164 0
165 0
166 0
168 0
170 0
171 0
174 0
175 0
177 0
178 0
180 0
184 0
186 0
187 0
189 0
190 0
191 0
193 0
194 0
195 0
196 0
197 0
198 0
200 0
17 44 86 25 0
29 53 75 83 0
c restarts              : 130
c conflicts             : 1              (250 /sec)
c decisions             : 10616          (0.00 % random) (2654000 /sec)
c propagations          : 35582          (8895500 /sec)
c conflict literals     : 4              (0.00 % deleted)
c CPU time (sec.): 0.004
